LengthSchedulingHorizon=1437;
nAttributes=5;
SetupCosts=[[0, 0, 0, 0, 0], [12, 22, 21, 20, 19], [21, 13, 25, 22, 14], [24, 15, 6, 23, 19], [22, 22, 25, 0, 19], [18, 15, 14, 23, 3]];
SetupTimes=[[0, 0, 0, 0, 0], [6, 15, 17, 16, 16], [16, 5, 23, 17, 16], [20, 17, 5, 23, 25], [23, 24, 20, 9, 18], [23, 22, 23, 15, 1]];
nMachines=2;
MinCap=[0, 0];
MaxCap=[21, 100];

initState=[2, 2];
nShifts=2;
ShiftStartTimes = [[205, 1288], [0, 350]];
ShiftEndTimes = [[1094, 1432], [0, 1289]];
nJobs=10;
EligibleMachines = [{1, 2}, {1}, {1, 2}, {1}, {1, 2}, {2}, {1, 2}, {1, 2}, {2}, {1, 2}];
EarliestStart=[157, 170, 81, 165, 64, 254, 255, 207, 102, 2];
LatestEnd=[199, 329, 106, 316, 184, 300, 426, 360, 195, 67];
MinTime=[25, 96, 14, 85, 87, 37, 97, 78, 56, 61];
MaxTime=[100, 100, 100, 100, 100, 100, 100, 100, 100, 100];
JobSize=[2, 5, 4, 4, 3, 3, 2, 5, 1, 2];
Attribute=[3, 2, 3, 3, 2, 1, 1, 2, 2, 4];

upper_bound_integer_objective=1680000;
mult_factor_total_runtime=100;
mult_factor_finished_toolate=160000;
mult_factor_total_setuptimes=0;
mult_factor_total_setupcosts=64;
running_time_bound=636;
min_duration=14;
max_duration=97;
max_setup_time=25;
max_setup_cost=25;
